NAME 
ROWS
 N  OBJ
 L  R0      
 L  R1      
 L  R2      
 E  R3      
 E  R4      
 E  R5      
 E  R6      
 E  R7      
 E  R8      
 E  R9      
 E  R10     
 E  R11     
 E  R12     
COLUMNS
    MARKER    'MARKER'                 'INTORG'
    I0(7)     OBJ       135
    I0(7)     R0        -107
    I0(7)     R1        -150
    I0(7)     R2        195
    I0(7)     R4        -1
    I0(7)     R5        8
    I0(7)     R6        11
    I0(7)     R12       1
    I1(6)     OBJ       11
    I1(6)     R0        142
    I1(6)     R1        -140
    I1(6)     R2        -62
    I1(6)     R3        12
    I1(6)     R5        18
    I1(6)     R12       1
    I2(7)     OBJ       -185
    I2(7)     R0        -147
    I2(7)     R1        -52
    I2(7)     R2        178
    I2(7)     R3        1
    I2(7)     R4        18
    I2(7)     R6        1
    I2(7)     R12       1
    I3(5)     OBJ       196
    I3(5)     R0        -184
    I3(5)     R1        5
    I3(5)     R2        142
    I3(5)     R5        12
    I3(5)     R12       1
    MARKER    'MARKER'                 'INTEND'
    C4(9)     OBJ       8
    C4(9)     R0        3
    C4(9)     R1        -6
    C4(9)     R2        -10
    C4(9)     R5        14
    C4(9)     R7        4
    C4(9)     R8        8
    C4(9)     R9        15
    C4(9)     R10       5
    C4(9)     R11       8
    C5(7)     OBJ       -8
    C5(7)     R0        2
    C5(7)     R1        5
    C5(7)     R2        -4
    C5(7)     R4        2
    C5(7)     R5        13
    C5(7)     R8        18
    C5(7)     R9        3
    C6(10)    OBJ       -9
    C6(10)    R0        -9
    C6(10)    R1        -7
    C6(10)    R2        -1
    C6(10)    R3        7
    C6(10)    R4        4
    C6(10)    R5        -1
    C6(10)    R6        19
    C6(10)    R9        14
    C6(10)    R10       4
    C6(10)    R11       3
    C7(11)    OBJ       6
    C7(11)    R0        -2
    C7(11)    R1        -5
    C7(11)    R2        6
    C7(11)    R3        4
    C7(11)    R4        14
    C7(11)    R5        8
    C7(11)    R6        6
    C7(11)    R7        16
    C7(11)    R9        4
    C7(11)    R10       17
    C7(11)    R11       -1
    C8(9)     OBJ       7
    C8(9)     R0        9
    C8(9)     R1        -7
    C8(9)     R2        -2
    C8(9)     R3        15
    C8(9)     R5        2
    C8(9)     R6        15
    C8(9)     R8        6
    C8(9)     R9        11
    C8(9)     R11       13
    C9(9)     OBJ       1
    C9(9)     R0        -8
    C9(9)     R1        -9
    C9(9)     R2        5
    C9(9)     R3        5
    C9(9)     R4        7
    C9(9)     R5        8
    C9(9)     R6        17
    C9(9)     R10       13
    C9(9)     R11       13
    C10(1)    R3        1
    C11(1)    R4        1
    C12(1)    R5        1
    C13(1)    R6        1
    C14(1)    R7        1
    C15(1)    R8        1
    C16(1)    R9        1
    C17(1)    R10       1
    C18(1)    R11       1
    C19(1)    R12       1
RHS
    RHS1      R0        -1.8170760233918131e+02
    RHS1      R1        -6.9426900584795334e+01
    RHS1      R2        1.6241520467836256e+02
    RHS1      R3        89
    RHS1      R4        91
    RHS1      R5        84
    RHS1      R6        86
    RHS1      R7        79
    RHS1      R8        50
    RHS1      R9        80
    RHS1      R10       90
    RHS1      R11       76
    RHS1      R12       1
BOUNDS
 UP BND1      I0(7)     1
 UP BND1      I1(6)     1
 UP BND1      I2(7)     1
 UP BND1      I3(5)     1
ENDATA
